s td 309 25 350
b 1 3 72 154
b 2 12 76 109
b 3 9 14 201
b 4 17 32 280
b 5 20 32 339
b 6 29 136 150
b 7 30 44 279
b 8 31 63 329
b 9 21 34 54 99 180 184 235 243 267 270 276 279 329 331
b 10 35 121 209 250 254
b 11 22 36 296
b 12 11 41 304
b 13 45 76 97
b 14 47 63 276
b 15 48 92 278
b 16 52 63 184
b 17 13 53 279
b 18 32 55 56 73 91 101 134 139 140 187 281 284 306 322
b 19 32 61 327
b 20 21 63 64
b 21 65 279 319
b 22 66 72 281
b 23 2 71 110
b 24 2 79 110
b 25 63 74 331
b 26 77 171 274
b 27 87 179 225
b 28 88 228 247
b 29 43 93 316
b 30 94 162 279
b 31 95 215 318
b 32 32 57 96
b 33 37 98 320
b 34 76 108 238
b 35 76 111 344
b 36 90 112 279
b 37 113 126 284
b 38 24 114 128
b 39 32 116 246
b 40 76 117 149
b 41 32 119 286
b 42 101 120 126
b 43 72 123 124
b 44 127 228 305
b 45 24 128 144 326
b 46 73 126 129
b 47 32 131 239
b 48 137 186 194
b 49 19 72 97 109 115 118 146 149 159 176 199 220 238 344
b 50 1 7 8 19 26 72 76 97 109 115 118 123 149 154 159 174 176 199 200 220 238 275 281 344 350
b 51 1 7 8 19 26 50 72 76 109 115 118 123 149 154 159 174 176 199 200 220 238 275 281 344 350
b 52 1 7 8 19 26 50 72 76 115 118 123 149 154 159 174 176 199 200 220 238 275 281 344 350
b 53 155 241 279
b 54 7 72 156
b 55 126 164 322
b 56 40 60 165
b 57 63 99 166
b 58 25 167 244
b 59 168 234 279
b 60 32 151 169
b 61 170 313 335
b 62 33 175 288
b 63 72 174 177
b 64 59 178 279
b 65 160 188 271
b 66 38 57 81 126 151 193 239 246 280 286 289 327 337 339
b 67 106 205 282
b 68 63 210 267
b 69 70 158 214
b 70 70 158 299
b 71 72 216 275
b 72 67 196 217
b 73 67 181 196
b 74 24 219 334
b 75 72 200 221
b 76 32 38 223
b 77 32 38 55 57 73 81 91 101 126 134 140 151 187 239 246 280 281 284 286 289 306 322 327 337 339
b 78 32 55 57 73 81 91 101 126 134 139 140 151 187 239 246 280 281 284 286 289 306 322 327 337 339
b 79 32 55 73 81 91 101 126 134 139 140 151 187 239 246 280 281 284 286 289 306 322 327 337 339
b 80 32 55 81 91 101 126 134 139 140 151 187 239 246 280 281 284 286 289 306 322 327 337 339
b 81 32 55 81 91 126 134 139 140 151 187 239 246 280 281 284 286 289 306 322 327 337 339
b 82 28 230 300
b 83 1 72 231
b 84 1 7 8 26 50 76 123 154 174 200 232 275 281 350
b 85 1 7 8 19 26 50 72 76 115 118 123 154 159 174 176 199 200 220 238 275 281 344 350
b 86 7 8 19 26 50 72 76 115 118 123 154 159 174 176 199 200 220 238 275 281 344 350
b 87 8 19 26 50 72 76 115 118 123 154 159 174 176 199 200 220 238 275 281 344 350
b 88 8 19 26 50 72 76 115 118 154 159 174 176 199 200 220 238 275 281 344 350
b 89 8 19 26 50 72 76 115 118 159 174 176 199 200 220 238 275 281 344 350
b 90 8 19 26 50 72 76 115 118 159 176 199 200 220 238 275 281 344 350
b 91 161 233 279
b 92 75 157 237
b 93 75 157 305
b 94 8 19 26 50 72 76 115 118 159 176 199 220 238 275 281 344 350
b 95 32 55 81 91 126 134 139 140 187 239 246 280 281 284 286 289 306 322 327 337 339
b 96 55 126 240
b 97 32 55 81 91 126 134 139 140 187 246 280 281 284 286 289 306 322 327 337 339
b 98 242 259 279
b 99 32 81 91 126 134 139 140 187 246 280 281 284 286 289 306 322 327 337 339
b 100 76 220 249
b 101 8 19 26 50 72 76 115 118 159 176 199 220 275 281 344 350
b 102 32 81 251
b 103 32 81 91 126 134 139 140 187 280 281 284 286 289 306 322 327 337 339
b 104 76 176 253
b 105 8 19 26 50 72 76 115 118 159 176 199 275 281 344 350
b 106 32 255 289
b 107 16 227 257
b 108 16 78 227 252
b 109 76 118 258
b 110 8 19 26 50 72 76 115 118 159 199 275 281 344 350
b 111 72 264 350
b 112 126 265 306
b 113 152 227 266
b 114 63 268 270
b 115 8 19 26 50 72 76 115 159 199 275 281 344 350
b 116 32 91 126 134 139 140 187 280 281 284 286 289 306 322 327 337 339
b 117 13 44 59 63 90 161 162 195 234 241 259 283 285 319
b 118 32 91 126 134 139 140 187 281 284 286 289 306 322 327 337 339
b 119 32 91 126 134 139 140 187 281 286 289 306 322 327 337 339
b 120 32 91 126 134 139 140 187 281 289 306 322 327 337 339
b 121 62 181 290
b 122 76 115 291
b 123 8 19 26 50 72 76 115 159 199 281 344 350
b 124 51 204 292
b 125 63 180 294
b 126 76 159 295
b 127 8 19 26 50 72 76 159 199 281 344 350
b 128 32 298 337
b 129 76 199 301
b 130 8 19 26 50 72 76 199 281 344 350
b 131 32 91 126 134 139 140 187 281 306 322 327 337 339
b 132 19 76 307
b 133 8 19 26 50 72 76 281 344 350
b 134 224 308 313
b 135 49 142 245 256 310
b 136 126 187 312
b 137 32 91 126 134 139 140 187 281 322 327 337 339
b 138 43 80 226 316
b 139 133 153 317
b 140 126 134 321
b 141 32 91 126 134 139 140 281 322 327 337 339
b 142 32 91 126 139 140 281 322 327 337 339
b 143 32 91 126 139 140 281 327 337 339
b 144 318 328 348
b 145 18 42 183 208 332
b 146 126 140 336
b 147 32 91 126 139 140 281 337 339
b 148 32 91 126 139 281 337 339
b 149 148 172 340
b 150 60 148 172
b 151 86 122 341
b 152 86 122 244
b 153 8 26 50 72 76 281 344 350
b 154 279 285 349
b 155 13 21 44 54 59 63 90 99 161 162 180 184 195 234 241 243 259 267 270 276 279 285 319 329 331
b 156 13 21 44 54 59 63 90 99 161 162 180 184 195 234 235 241 243 259 267 270 276 279 319 329 331
b 157 21 44 54 59 63 90 99 161 162 180 184 195 234 235 241 243 259 267 270 276 279 319 329 331
b 158 44 54 59 63 90 99 161 162 180 184 195 234 235 241 243 259 267 270 276 279 319 329 331
b 159 54 59 63 90 99 161 162 180 184 195 234 235 241 243 259 267 270 276 279 319 329 331
b 160 54 63 90 99 161 162 180 184 195 234 235 241 243 259 267 270 276 279 319 329 331
b 161 54 63 99 161 162 180 184 195 234 235 241 243 259 267 270 276 279 319 329 331
b 162 54 63 161 162 180 184 195 234 235 241 243 259 267 270 276 279 319 329 331
b 163 54 63 162 180 184 195 234 235 241 243 259 267 270 276 279 319 329 331
b 164 54 63 180 184 195 234 235 241 243 259 267 270 276 279 319 329 331
b 165 54 63 184 195 234 235 241 243 259 267 270 276 279 319 329 331
b 166 54 63 195 234 235 241 243 259 267 270 276 279 319 329 331
b 167 54 63 195 235 241 243 259 267 270 276 279 319 329 331
b 168 54 63 195 235 243 259 267 270 276 279 319 329 331
b 169 54 63 195 235 243 267 270 276 279 319 329 331
b 170 54 63 195 235 243 270 276 279 319 329 331
b 171 54 63 195 235 243 276 279 319 329 331
b 172 54 63 195 235 243 279 319 329 331
b 173 54 63 195 235 243 279 329 331
b 174 54 63 195 235 243 279 331
b 175 8 26 50 72 76 281 350
b 176 22 107 227 282
b 177 23 58 69 254
b 178 25 28 86 314
b 179 25 86 244
b 180 25 86 314
b 181 27 33 40 172
b 182 40 60 172
b 183 27 40 172
b 184 24 37 186 338
b 185 85 160 173 212 262 271
b 186 5 62 92 196
b 187 62 181 196
b 188 5 62 196
b 189 104 190 229 313
b 190 190 203 229 313
b 191 43 136 160 347
b 192 24 138 144 326
b 193 147 211 260 318
b 194 197 211 260 318
b 195 46 106 132 191 277 282
b 196 130 197 211 297 318
b 197 103 203 229 313 324
b 198 49 143 206 343
b 199 138 186 194 213 272 330
b 200 89 100 208 222
b 201 43 80 212 226
b 202 228 236 323 325
b 203 228 293 323 325
b 204 46 78 227 252
b 205 75 228 305
b 206 84 228 263 293 325
b 207 10 15 69 271
b 208 11 224 229 304
b 209 224 229 304 313 324
b 210 103 224 229 313 324
b 211 84 228 247 263 293
b 212 105 125 274 326
b 213 130 211 297 318 348
b 214 133 153 211 348
b 215 153 211 297 318 348
b 216 153 297 318 348
b 217 107 135 207 302 333
b 218 141 163 248 269 347
b 219 145 189 194 343
b 220 106 132 152 227
b 221 46 106 132 227 277 282
b 222 46 78 106 227 277 282
b 223 78 106 107 227 282
b 224 78 106 107 282
b 225 78 106 107 315
b 226 106 107 315 342
b 227 6 51 107 315 342
b 228 6 51 107 207 302 333 342
b 229 6 51 207 218 302 333 342
b 230 6 18 51 91 126 207 218 302 342 345
b 231 6 18 51 91 126 207 261 281 302 345
b 232 32 51 91 126 207 261 281 345
b 233 27 32 126 207 261 345
b 234 6 18 126 158 261 281 302
b 235 6 18 75 158 261 302
b 236 6 9 75 158 261 302
b 237 9 75 228 261
b 238 18 91 126 207 218 273 302 342 345
b 239 18 89 91 126 218 273 342 345
b 240 18 89 91 126 208 218 345
b 241 18 89 183 208 218 345
b 242 18 42 89 183 208 345
b 243 89 91 100 126 208
b 244 63 171 235 274
b 245 50 72 179 225
b 246 82 182 198 202 338
b 247 9 201 247 293
b 248 9 228 247 263 293
b 249 51 126 139 204
b 250 153 297 309 318
b 251 153 309 318
b 252 287 304 313 324
b 253 9 228 261 263
b 254 24 194 272 334
b 255 24 138 186 194 272 330
b 256 24 138 186 194 326 330
b 257 24 186 194 326 338
b 258 186 194 326 338
b 259 105 194 274 326 338
b 260 82 105 194 198 202 274 338
b 261 82 105 143 185 194 198 202 274
b 262 75 82 105 143 185 198 274 304
b 263 63 75 82 143 185 274 279 304
b 264 18 63 75 143 274 279
b 265 18 63 75 143 243 274 279
b 266 18 63 75 235 243 274 279
b 267 18 63 75 195 235 243 279
b 268 5 63 82 185 279 304
b 269 5 82 185 287 304
b 270 82 143 185 194 198 202 303
b 271 4 82 143 185 194 202 303
b 272 4 143 185 194 303 343
b 273 80 83 225 346
b 274 15 39 69 102 192 271
b 275 49 142 143 245 256 343
b 276 8 58 69 72 254
b 277 8 39 69 72 102 192 254
b 278 8 39 69 72 102 192 271
b 279 8 39 72 102 192 248 269 271
b 280 8 39 72 83 192 225 248 269 271 281
b 281 8 72 83 110 192 225 248 269 281 314
b 282 72 83 110 192 225 248 269 281 314
b 283 83 110 192 248 269 309 314
b 284 110 192 248 269 309 314
b 285 83 110 153 269 309
b 286 8 72 76 110 225 281 314
b 287 8 50 72 76 110 225 281
b 288 39 83 225 248 269 271 281 347
b 289 83 225 271 281 339 347
b 290 80 83 225 271 339 347
b 291 80 160 271 339 347
b 292 43 80 160 271 339 347
b 293 43 80 160 212 262 271 339
b 294 43 160 173 212 262 271 339
b 295 43 68 173 271 339
b 296 39 83 163 225 248 269 347
b 297 69 102 121 209 250 254
b 298 69 102 192 209 250 254
b 299 39 69 102 192 250 254
b 300 142 143 245 256 303 343
b 301 143 185 245 256 303 343
b 302 4 143 185 256 303 343
b 303 4 185 189 194 303 343
b 304 89 218 273 311 342 345
b 305 8 26 50 72 76 110 281
b 306 54 63 75 195 235 243 279
b 307 32 51 91 126 139 281 339
b 308 32 51 91 126 281 339
b 309 314
1 88
2 51
3 247
4 116
5 307
6 191
7 158
8 173
9 157
10 297
11 176
12 208
13 50
14 171
15 186
16 165
17 156
18 79
19 143
20 157
21 172
22 280
23 24
24 281
25 174
26 244
27 245
28 248
29 138
30 163
31 250
32 78
33 184
34 94
35 153
36 160
37 118
38 45
39 99
40 52
41 119
42 80
43 87
44 205
45 192
46 79
47 95
48 256
49 50
50 51
51 52
52 85
53 167
54 86
55 142
56 182
57 161
58 179
59 166
60 81
61 252
62 181
63 89
64 159
65 291
66 77
67 222
68 169
69 70
70 234
71 115
72 73
73 187
74 254
75 90
76 77
77 78
78 79
79 80
80 81
81 95
82 178
83 85
84 85
85 86
86 87
87 88
88 89
89 90
90 94
91 162
92 93
93 205
94 101
95 97
96 97
97 99
98 168
99 103
100 101
101 105
102 103
103 116
104 105
105 110
106 120
107 108
108 204
109 110
110 115
111 175
112 131
113 220
114 170
115 123
116 118
117 155
118 119
119 120
120 131
121 187
122 123
123 127
124 249
125 164
126 127
127 130
128 148
129 130
130 133
131 137
132 133
133 153
134 209
135 275
136 137
137 141
138 201
139 214
140 141
141 142
142 143
143 147
144 215
145 242
146 147
147 148
148 307
149 150
150 182
151 152
152 179
153 175
154 155
155 156
156 157
157 158
158 159
159 160
160 161
161 162
162 163
163 164
164 165
165 166
166 167
167 168
168 169
169 170
170 171
171 172
172 173
173 174
174 306
175 305
176 223
177 276
178 180
179 180
180 309
181 183
182 183
183 233
184 257
185 294
186 188
187 188
188 268
189 190
190 197
191 292
192 256
193 194
194 196
195 221
196 213
197 210
198 275
199 255
200 243
201 293
202 203
203 206
204 222
205 237
206 211
207 274
208 209
209 210
209 252
211 248
212 259
213 215
214 215
215 250
215 216
217 228
218 296
219 303
220 221
221 222
222 223
223 224
224 225
225 226
226 227
227 228
228 229
229 230
230 238
230 231
231 234
231 232
232 307
232 233
234 235
235 264
235 236
236 237
237 253
238 239
239 304
239 240
240 241
240 243
241 242
244 266
245 287
246 260
247 248
248 253
249 307
250 285
250 251
252 269
254 255
255 256
256 257
257 258
258 259
259 260
260 261
261 270
261 262
262 263
263 268
263 264
264 265
265 266
266 267
267 306
268 269
270 271
271 272
272 302
272 303
273 290
274 278
275 300
276 277
277 299
277 278
278 279
279 280
280 288
280 281
281 309
281 286
281 282
282 283
283 285
283 284
286 287
287 305
288 289
288 296
289 307
289 290
290 291
291 292
292 293
293 294
294 295
297 298
298 299
300 301
301 302
307 308
